c Sudoku solution
p cnf 729 0
155 0
197 0
224 0
239 0
253 0
288 0
325 0
344 0
372 0
418 0
523 0
536 0
547 0
591 0
632 0
646 0
687 0
726 0
761 0
782 0
492 0
798 0
811 0
842 0
241 0
552 0
885 0
896 0
295 0
276 0
486 0
999 0
694 0
589 0
179 0
184 0
381 0
393 0
148 0
338 0
971 0
983 0
945 0
934 0
514 0
833 0
743 0
113 0
131 0
122 0
217 0
316 0
166 0
262 0
912 0
449 0
956 0
877 0
774 0
565 0
578 0
357 0
369 0
759 0
967 0
737 0
715 0
928 0
829 0
619 0
435 0
427 0
621 0
451 0
658 0
464 0
663 0
473 0
675 0
854 0
868 0
